p cnf 31 80
a 24 14 0
e 1 2 3 4 5 6 7 8 9 10 11 12 13 15 16 17 18 19 20 21 22 23 25 26 27 28 29 30 31 0
3 -2 0
3 2 0
-4 1 0
-4 -3 0
-1 3 4 0
-7 -5 0
-7 6 0
5 -6 7 0
8 -2 0
8 -7 0
2 7 -8 0
9 8 0
9 7 0
-8 -7 -9 0
-11 -8 0
-11 10 0
8 -10 11 0
12 -9 0
12 -11 0
9 11 -12 0
13 -2 0
13 -1 0
2 1 -13 0
14 13 0
14 7 0
-13 -7 -14 0
-15 -1 0
-15 14 0
1 -14 15 0
-12 15 -16 0
12 -15 -16 0
-12 -15 16 0
12 15 16 0
-17 -7 0
-17 14 0
7 -14 17 0
-16 17 -18 0
16 -17 -18 0
-16 -17 18 0
16 17 18 0
-19 -4 0
-19 -18 0
4 18 19 0
-21 3 0
-21 -20 0
-3 20 21 0
21 -8 -22 0
-21 8 -22 0
21 8 22 0
-21 -8 22 0
24 23 0
24 23 0
-23 -24 0
-26 25 0
-26 20 0
-25 -20 26 0
13 7 -27 0
-13 -7 -27 0
13 -7 27 0
-13 7 27 0
28 26 0
28 27 0
-26 -27 -28 0
29 -24 0
29 28 0
24 -28 -29 0
-30 -22 0
-30 29 0
22 -29 30 0
31 -19 0
31 30 0
19 -30 -31 0
-3 13 -22 -16 7 25 0
-26 -17 -16 0
-15 -13 30 4 0
-30 13 -15 0
10 30 -31 -16 17 12 0
30 13 2 12 -14 -16 -8 0
9 28 -16 -29 -22 0
31 0
